Please solve the following SAT Problem encoded in DIMACS format, only return a single solution assignment without explanations, if there is any: 
p cnf 10 50
-1 2 -6 0
10 4 -8 0
9 4 -7 0
-3 10 -6 0
-3 4 -9 0
10 -7 -6 0
-1 4 10 0
10 -3 -5 0
-7 4 1 0
-10 -6 8 0
-4 10 1 0
4 -5 -1 0
8 -5 9 0
-6 9 -7 0
-7 9 -2 0
-5 8 9 0
-6 -2 9 0
-7 -3 -6 0
10 -3 4 0
-5 4 8 0
-1 9 10 0
9 -7 -6 0
-6 1 4 0
9 -1 -7 0
-6 4 -1 0
-3 -2 -5 0
-7 -3 -1 0
3 -7 -5 0
4 -7 -10 0
-7 3 -2 0
-1 -5 10 0
9 -3 4 0
-6 10 9 0
-6 -3 9 0
-3 8 -1 0
-2 10 -5 0
-3 -7 10 0
-2 -1 10 0
4 5 10 0
8 1 -5 0
4 -2 8 0
8 -5 -6 0
-3 1 8 0
4 7 -5 0
8 -5 -3 0
4 8 -2 0
2 8 4 0
1 -7 10 0
10 -2 -5 0
9 -6 -3 0

